% File represents an instance of a Composite Structure problem to be solved by a CP framework
% Created on 2025-03-26 10:41:27.341
T = 58;
n = 16;
m = 24;
edges = [(1, 2),
(6, 5),
(9, 10),
(13, 14),
(2, 3),
(6, 7),
(11, 10),
(15, 14),
(3, 4),
(7, 8),
(11, 12),
(15, 16),
(1, 5),
(9, 5),
(9, 13),
(6, 2),
(6, 10),
(10, 14),
(7, 3),
(11, 7),
(11, 15),
(8, 4),
(12, 8),
(12, 16)];
counts = [|20, 8, 20, 8,
|20, 8, 20, 4,
|20, 8, 20, 2,
|20, 4, 20, 2,
|18, 8, 18, 8,
|20, 8, 20, 8,
|20, 8, 20, 4,
|20, 8, 20, 2,
|18, 10, 18, 8,
|18, 8, 18, 8,
|20, 8, 20, 10,
|20, 8, 20, 4,
|18, 10, 18, 6,
|18, 8, 18, 6,
|20, 8, 20, 6,
|20, 6, 20, 2|];
